p cnf 430 1488
-191 126 0
-191 168 0
-191 19 0
-191 137 0
-191 -166 0
191 -126 -168 -19 -137 166 0
-192 -28 0
-192 -183 0
-192 33 0
-192 180 0
-192 -95 0
192 28 183 -33 -180 95 0
-193 -85 0
-193 -94 0
-193 -4 0
-193 147 0
-193 -99 0
193 85 94 4 -147 99 0
-194 36 0
-194 -120 0
-194 -131 0
-194 -88 0
-194 -91 0
194 -36 120 131 88 91 0
-195 -188 0
-195 -4 0
-195 173 0
-195 -31 0
-195 64 0
195 188 4 -173 31 -64 0
191 192 193 194 195 0
-196 -99 0
-196 -38 0
-196 -29 0
-196 170 0
-196 -34 0
196 99 38 29 -170 34 0
-197 -120 0
-197 188 0
-197 -167 0
-197 17 0
-197 -69 0
197 120 -188 167 -17 69 0
-198 -2 0
-198 -72 0
-198 87 0
-198 132 0
-198 122 0
198 2 72 -87 -132 -122 0
-199 52 0
-199 -72 0
-199 -80 0
-199 49 0
-199 -149 0
199 -52 72 80 -49 149 0
-200 114 0
-200 -86 0
-200 54 0
-200 -118 0
-200 -51 0
200 -114 86 -54 118 51 0
196 197 198 199 200 0
-201 56 0
-201 -150 0
-201 -49 0
-201 62 0
-201 -86 0
201 -56 150 49 -62 86 0
-202 185 0
-202 -31 0
-202 -20 0
-202 -44 0
-202 24 0
202 -185 31 20 44 -24 0
-203 95 0
-203 -115 0
-203 69 0
-203 18 0
-203 94 0
203 -95 115 -69 -18 -94 0
-204 -4 0
-204 -19 0
-204 -88 0
-204 174 0
-204 -64 0
204 4 19 88 -174 64 0
-205 -136 0
-205 82 0
-205 -73 0
-205 -184 0
-205 -75 0
205 136 -82 73 184 75 0
201 202 203 204 205 0
-206 -100 0
-206 134 0
-206 29 0
-206 -148 0
-206 -49 0
206 100 -134 -29 148 49 0
-207 49 0
-207 114 0
-207 82 0
-207 -30 0
-207 135 0
207 -49 -114 -82 30 -135 0
-208 105 0
-208 -2 0
-208 55 0
-208 26 0
-208 183 0
208 -105 2 -55 -26 -183 0
-209 -159 0
-209 164 0
-209 -27 0
-209 -82 0
-209 -48 0
209 159 -164 27 82 48 0
-210 102 0
-210 -120 0
-210 78 0
-210 143 0
-210 -30 0
210 -102 120 -78 -143 30 0
206 207 208 209 210 0
-211 -15 0
-211 -150 0
-211 153 0
-211 -2 0
-211 1 0
211 15 150 -153 2 -1 0
-212 83 0
-212 -183 0
-212 -166 0
-212 -179 0
-212 137 0
212 -83 183 166 179 -137 0
-213 119 0
-213 -74 0
-213 126 0
-213 38 0
-213 137 0
213 -119 74 -126 -38 -137 0
-214 -125 0
-214 16 0
-214 -15 0
-214 -3 0
-214 25 0
214 125 -16 15 3 -25 0
-215 -116 0
-215 -106 0
-215 -75 0
-215 -86 0
-215 -167 0
215 116 106 75 86 167 0
211 212 213 214 215 0
-216 21 0
-216 94 0
-216 -42 0
-216 102 0
-216 -144 0
216 -21 -94 42 -102 144 0
-217 93 0
-217 122 0
-217 -133 0
-217 -110 0
-217 139 0
217 -93 -122 133 110 -139 0
-218 -120 0
-218 -12 0
-218 -141 0
-218 -50 0
-218 184 0
218 120 12 141 50 -184 0
-219 -100 0
-219 11 0
-219 69 0
-219 154 0
-219 139 0
219 100 -11 -69 -154 -139 0
-220 -3 0
-220 -169 0
-220 163 0
-220 -17 0
-220 -78 0
220 3 169 -163 17 78 0
216 217 218 219 220 0
-221 -171 0
-221 -149 0
-221 103 0
-221 48 0
-221 -185 0
221 171 149 -103 -48 185 0
-222 -11 0
-222 -167 0
-222 -118 0
-222 129 0
-222 187 0
222 11 167 118 -129 -187 0
-223 -160 0
-223 -148 0
-223 58 0
-223 14 0
-223 52 0
223 160 148 -58 -14 -52 0
-224 -131 0
-224 85 0
-224 125 0
-224 -80 0
-224 -107 0
224 131 -85 -125 80 107 0
-225 -72 0
-225 4 0
-225 -33 0
-225 167 0
-225 136 0
225 72 -4 33 -167 -136 0
221 222 223 224 225 0
-226 -185 0
-226 1 0
-226 -98 0
-226 59 0
-226 84 0
226 185 -1 98 -59 -84 0
-227 -163 0
-227 138 0
-227 110 0
-227 -107 0
-227 175 0
227 163 -138 -110 107 -175 0
-228 -153 0
-228 110 0
-228 109 0
-228 -130 0
-228 -158 0
228 153 -110 -109 130 158 0
-229 19 0
-229 16 0
-229 135 0
-229 85 0
-229 -51 0
229 -19 -16 -135 -85 51 0
-230 57 0
-230 -180 0
-230 -163 0
-230 34 0
-230 -73 0
230 -57 180 163 -34 73 0
226 227 228 229 230 0
-231 -125 0
-231 128 0
-231 89 0
-231 -131 0
-231 68 0
231 125 -128 -89 131 -68 0
-232 111 0
-232 -183 0
-232 -91 0
-232 -181 0
-232 -4 0
232 -111 183 91 181 4 0
-233 -100 0
-233 13 0
-233 158 0
-233 90 0
-233 165 0
233 100 -13 -158 -90 -165 0
-234 178 0
-234 -109 0
-234 153 0
-234 -30 0
-234 159 0
234 -178 109 -153 30 -159 0
-235 74 0
-235 -107 0
-235 119 0
-235 65 0
-235 124 0
235 -74 107 -119 -65 -124 0
231 232 233 234 235 0
-236 -19 0
-236 -56 0
-236 5 0
-236 150 0
-236 -76 0
236 19 56 -5 -150 76 0
-237 -20 0
-237 85 0
-237 7 0
-237 102 0
-237 19 0
237 20 -85 -7 -102 -19 0
-238 -154 0
-238 172 0
-238 -184 0
-238 -97 0
-238 -131 0
238 154 -172 184 97 131 0
-239 -46 0
-239 16 0
-239 -181 0
-239 137 0
-239 4 0
239 46 -16 181 -137 -4 0
-240 -129 0
-240 138 0
-240 72 0
-240 -69 0
-240 187 0
240 129 -138 -72 69 -187 0
236 237 238 239 240 0
-241 131 0
-241 90 0
-241 5 0
-241 -55 0
-241 -181 0
241 -131 -90 -5 55 181 0
-242 127 0
-242 -11 0
-242 -48 0
-242 183 0
-242 -50 0
242 -127 11 48 -183 50 0
-243 83 0
-243 -11 0
-243 107 0
-243 -84 0
-243 71 0
243 -83 11 -107 84 -71 0
-244 -165 0
-244 9 0
-244 -156 0
-244 12 0
-244 168 0
244 165 -9 156 -12 -168 0
-245 117 0
-245 -172 0
-245 -161 0
-245 67 0
-245 108 0
245 -117 172 161 -67 -108 0
241 242 243 244 245 0
-246 17 0
-246 27 0
-246 -99 0
-246 -132 0
-246 145 0
246 -17 -27 99 132 -145 0
-247 10 0
-247 44 0
-247 -165 0
-247 -33 0
-247 125 0
247 -10 -44 165 33 -125 0
-248 -160 0
-248 -107 0
-248 -5 0
-248 189 0
-248 -68 0
248 160 107 5 -189 68 0
-249 146 0
-249 -174 0
-249 49 0
-249 -9 0
-249 24 0
249 -146 174 -49 9 -24 0
-250 90 0
-250 151 0
-250 70 0
-250 100 0
-250 180 0
250 -90 -151 -70 -100 -180 0
246 247 248 249 250 0
-251 168 0
-251 -126 0
-251 -48 0
-251 120 0
-251 86 0
251 -168 126 48 -120 -86 0
-252 -178 0
-252 27 0
-252 -153 0
-252 62 0
-252 152 0
252 178 -27 153 -62 -152 0
-253 -144 0
-253 150 0
-253 -20 0
-253 5 0
-253 88 0
253 144 -150 20 -5 -88 0
-254 38 0
-254 -88 0
-254 82 0
-254 -68 0
-254 58 0
254 -38 88 -82 68 -58 0
-255 -137 0
-255 186 0
-255 -139 0
-255 -156 0
-255 84 0
255 137 -186 139 156 -84 0
251 252 253 254 255 0
-256 -37 0
-256 -36 0
-256 -19 0
-256 -142 0
-256 -164 0
256 37 36 19 142 164 0
-257 -56 0
-257 -97 0
-257 7 0
-257 -101 0
-257 -3 0
257 56 97 -7 101 3 0
-258 -159 0
-258 -109 0
-258 -51 0
-258 119 0
-258 118 0
258 159 109 51 -119 -118 0
-259 173 0
-259 -47 0
-259 136 0
-259 165 0
-259 -86 0
259 -173 47 -136 -165 86 0
-260 27 0
-260 145 0
-260 24 0
-260 -118 0
-260 -77 0
260 -27 -145 -24 118 77 0
256 257 258 259 260 0
-261 -130 0
-261 33 0
-261 50 0
-261 84 0
-261 38 0
261 130 -33 -50 -84 -38 0
-262 -167 0
-262 -58 0
-262 59 0
-262 -185 0
-262 128 0
262 167 58 -59 185 -128 0
-263 -10 0
-263 183 0
-263 -165 0
-263 63 0
-263 186 0
263 10 -183 165 -63 -186 0
-264 167 0
-264 163 0
-264 98 0
-264 -62 0
-264 -39 0
264 -167 -163 -98 62 39 0
-265 -6 0
-265 58 0
-265 -130 0
-265 -174 0
-265 117 0
265 6 -58 130 174 -117 0
261 262 263 264 265 0
-266 -42 0
-266 -73 0
-266 -156 0
-266 -138 0
-266 130 0
266 42 73 156 138 -130 0
-267 -49 0
-267 -32 0
-267 -146 0
-267 -26 0
-267 -80 0
267 49 32 146 26 80 0
-268 54 0
-268 -73 0
-268 152 0
-268 -118 0
-268 -180 0
268 -54 73 -152 118 180 0
-269 -20 0
-269 93 0
-269 -75 0
-269 -123 0
-269 168 0
269 20 -93 75 123 -168 0
-270 161 0
-270 -134 0
-270 175 0
-270 22 0
-270 83 0
270 -161 134 -175 -22 -83 0
266 267 268 269 270 0
-271 -164 0
-271 -28 0
-271 180 0
-271 -19 0
-271 151 0
271 164 28 -180 19 -151 0
-272 187 0
-272 -130 0
-272 -98 0
-272 -141 0
-272 -18 0
272 -187 130 98 141 18 0
-273 128 0
-273 -45 0
-273 -187 0
-273 -64 0
-273 -30 0
273 -128 45 187 64 30 0
-274 138 0
-274 74 0
-274 53 0
-274 -63 0
-274 93 0
274 -138 -74 -53 63 -93 0
-275 -171 0
-275 -166 0
-275 8 0
-275 -112 0
-275 -185 0
275 171 166 -8 112 185 0
271 272 273 274 275 0
-276 42 0
-276 53 0
-276 100 0
-276 -4 0
-276 134 0
276 -42 -53 -100 4 -134 0
-277 73 0
-277 133 0
-277 -27 0
-277 -16 0
-277 -18 0
277 -73 -133 27 16 18 0
-278 31 0
-278 161 0
-278 -84 0
-278 135 0
-278 137 0
278 -31 -161 84 -135 -137 0
-279 29 0
-279 144 0
-279 7 0
-279 84 0
-279 56 0
279 -29 -144 -7 -84 -56 0
-280 120 0
-280 -21 0
-280 -64 0
-280 4 0
-280 -84 0
280 -120 21 64 -4 84 0
276 277 278 279 280 0
-281 75 0
-281 87 0
-281 178 0
-281 -91 0
-281 -49 0
281 -75 -87 -178 91 49 0
-282 19 0
-282 -68 0
-282 -28 0
-282 -74 0
-282 -87 0
282 -19 68 28 74 87 0
-283 67 0
-283 9 0
-283 84 0
-283 -144 0
-283 98 0
283 -67 -9 -84 144 -98 0
-284 12 0
-284 80 0
-284 106 0
-284 89 0
-284 -74 0
284 -12 -80 -106 -89 74 0
-285 98 0
-285 157 0
-285 -174 0
-285 -70 0
-285 -110 0
285 -98 -157 174 70 110 0
281 282 283 284 285 0
-286 35 0
-286 106 0
-286 -5 0
-286 -112 0
-286 149 0
286 -35 -106 5 112 -149 0
-287 -12 0
-287 99 0
-287 -115 0
-287 65 0
-287 162 0
287 12 -99 115 -65 -162 0
-288 1 0
-288 59 0
-288 134 0
-288 133 0
-288 -25 0
288 -1 -59 -134 -133 25 0
-289 -49 0
-289 -77 0
-289 22 0
-289 38 0
-289 4 0
289 49 77 -22 -38 -4 0
-290 150 0
-290 78 0
-290 -21 0
-290 13 0
-290 -126 0
290 -150 -78 21 -13 126 0
286 287 288 289 290 0
-291 -52 0
-291 -144 0
-291 -150 0
-291 -70 0
-291 46 0
291 52 144 150 70 -46 0
-292 -52 0
-292 -48 0
-292 181 0
-292 -133 0
-292 15 0
292 52 48 -181 133 -15 0
-293 -123 0
-293 -78 0
-293 -163 0
-293 140 0
-293 188 0
293 123 78 163 -140 -188 0
-294 -107 0
-294 -53 0
-294 78 0
-294 -36 0
-294 177 0
294 107 53 -78 36 -177 0
-295 82 0
-295 -38 0
-295 166 0
-295 -161 0
-295 41 0
295 -82 38 -166 161 -41 0
291 292 293 294 295 0
-296 28 0
-296 -105 0
-296 -134 0
-296 -18 0
-296 14 0
296 -28 105 134 18 -14 0
-297 127 0
-297 -85 0
-297 -117 0
-297 22 0
-297 160 0
297 -127 85 117 -22 -160 0
-298 93 0
-298 -151 0
-298 -102 0
-298 -41 0
-298 13 0
298 -93 151 102 41 -13 0
-299 169 0
-299 -51 0
-299 -163 0
-299 -91 0
-299 184 0
299 -169 51 163 91 -184 0
-300 -48 0
-300 135 0
-300 -99 0
-300 -171 0
-300 -108 0
300 48 -135 99 171 108 0
296 297 298 299 300 0
-301 -125 0
-301 -147 0
-301 153 0
-301 71 0
-301 -83 0
301 125 147 -153 -71 83 0
-302 -90 0
-302 -152 0
-302 137 0
-302 -87 0
-302 128 0
302 90 152 -137 87 -128 0
-303 54 0
-303 -81 0
-303 23 0
-303 63 0
-303 -47 0
303 -54 81 -23 -63 47 0
-304 -45 0
-304 -141 0
-304 27 0
-304 161 0
-304 -152 0
304 45 141 -27 -161 152 0
-305 -139 0
-305 -60 0
-305 8 0
-305 -69 0
-305 147 0
305 139 60 -8 69 -147 0
301 302 303 304 305 0
-306 83 0
-306 61 0
-306 -81 0
-306 -44 0
-306 159 0
306 -83 -61 81 44 -159 0
-307 146 0
-307 83 0
-307 -119 0
-307 -122 0
-307 -39 0
307 -146 -83 119 122 39 0
-308 81 0
-308 -101 0
-308 79 0
-308 -156 0
-308 -158 0
308 -81 101 -79 156 158 0
-309 -8 0
-309 -143 0
-309 25 0
-309 147 0
-309 -87 0
309 8 143 -25 -147 87 0
-310 -17 0
-310 176 0
-310 11 0
-310 135 0
-310 -54 0
310 17 -176 -11 -135 54 0
306 307 308 309 310 0
-311 -119 0
-311 77 0
-311 -115 0
-311 -59 0
-311 -63 0
311 119 -77 115 59 63 0
-312 -20 0
-312 156 0
-312 126 0
-312 118 0
-312 55 0
312 20 -156 -126 -118 -55 0
-313 -24 0
-313 19 0
-313 73 0
-313 -77 0
-313 25 0
313 24 -19 -73 77 -25 0
-314 46 0
-314 80 0
-314 -112 0
-314 13 0
-314 -148 0
314 -46 -80 112 -13 148 0
-315 -6 0
-315 39 0
-315 -45 0
-315 101 0
-315 -162 0
315 6 -39 45 -101 162 0
311 312 313 314 315 0
-316 -105 0
-316 20 0
-316 -34 0
-316 174 0
-316 -47 0
316 105 -20 34 -174 47 0
-317 57 0
-317 62 0
-317 -30 0
-317 56 0
-317 122 0
317 -57 -62 30 -56 -122 0
-318 -20 0
-318 -96 0
-318 -1 0
-318 -149 0
-318 81 0
318 20 96 1 149 -81 0
-319 -54 0
-319 104 0
-319 -72 0
-319 -11 0
-319 69 0
319 54 -104 72 11 -69 0
-320 -145 0
-320 -67 0
-320 -81 0
-320 54 0
-320 115 0
320 145 67 81 -54 -115 0
316 317 318 319 320 0
-321 -70 0
-321 -59 0
-321 84 0
-321 9 0
-321 77 0
321 70 59 -84 -9 -77 0
-322 -120 0
-322 -58 0
-322 -169 0
-322 -34 0
-322 104 0
322 120 58 169 34 -104 0
-323 -61 0
-323 161 0
-323 171 0
-323 -50 0
-323 -133 0
323 61 -161 -171 50 133 0
-324 -37 0
-324 184 0
-324 69 0
-324 -78 0
-324 188 0
324 37 -184 -69 78 -188 0
-325 154 0
-325 -29 0
-325 -138 0
-325 -88 0
-325 -47 0
325 -154 29 138 88 47 0
321 322 323 324 325 0
-326 145 0
-326 107 0
-326 -158 0
-326 126 0
-326 165 0
326 -145 -107 158 -126 -165 0
-327 70 0
-327 -166 0
-327 -144 0
-327 25 0
-327 107 0
327 -70 166 144 -25 -107 0
-328 68 0
-328 -6 0
-328 -184 0
-328 -87 0
-328 -189 0
328 -68 6 184 87 189 0
-329 -183 0
-329 159 0
-329 -76 0
-329 -108 0
-329 10 0
329 183 -159 76 108 -10 0
-330 163 0
-330 62 0
-330 107 0
-330 -115 0
-330 -95 0
330 -163 -62 -107 115 95 0
326 327 328 329 330 0
-331 8 0
-331 -40 0
-331 128 0
-331 181 0
-331 -169 0
331 -8 40 -128 -181 169 0
-332 -110 0
-332 169 0
-332 65 0
-332 -7 0
-332 -89 0
332 110 -169 -65 7 89 0
-333 -90 0
-333 -181 0
-333 -182 0
-333 -178 0
-333 122 0
333 90 181 182 178 -122 0
-334 -113 0
-334 -156 0
-334 167 0
-334 84 0
-334 -50 0
334 113 156 -167 -84 50 0
-335 136 0
-335 -86 0
-335 96 0
-335 -92 0
-335 -144 0
335 -136 86 -96 92 144 0
331 332 333 334 335 0
-336 -115 0
-336 -27 0
-336 -60 0
-336 2 0
-336 -116 0
336 115 27 60 -2 116 0
-337 69 0
-337 -30 0
-337 185 0
-337 55 0
-337 19 0
337 -69 30 -185 -55 -19 0
-338 -118 0
-338 122 0
-338 -59 0
-338 178 0
-338 -2 0
338 118 -122 59 -178 2 0
-339 -56 0
-339 97 0
-339 181 0
-339 110 0
-339 -38 0
339 56 -97 -181 -110 38 0
-340 -149 0
-340 184 0
-340 -173 0
-340 137 0
-340 129 0
340 149 -184 173 -137 -129 0
336 337 338 339 340 0
-341 171 0
-341 -36 0
-341 -44 0
-341 -19 0
-341 55 0
341 -171 36 44 19 -55 0
-342 -62 0
-342 70 0
-342 -144 0
-342 137 0
-342 15 0
342 62 -70 144 -137 -15 0
-343 82 0
-343 42 0
-343 167 0
-343 58 0
-343 165 0
343 -82 -42 -167 -58 -165 0
-344 -19 0
-344 116 0
-344 -75 0
-344 -128 0
-344 145 0
344 19 -116 75 128 -145 0
-345 165 0
-345 153 0
-345 -104 0
-345 142 0
-345 -143 0
345 -165 -153 104 -142 143 0
341 342 343 344 345 0
-346 -97 0
-346 83 0
-346 -51 0
-346 -20 0
-346 -1 0
346 97 -83 51 20 1 0
-347 8 0
-347 -114 0
-347 106 0
-347 -104 0
-347 65 0
347 -8 114 -106 104 -65 0
-348 89 0
-348 -76 0
-348 9 0
-348 101 0
-348 122 0
348 -89 76 -9 -101 -122 0
-349 149 0
-349 92 0
-349 69 0
-349 112 0
-349 50 0
349 -149 -92 -69 -112 -50 0
-350 73 0
-350 -60 0
-350 181 0
-350 38 0
-350 -89 0
350 -73 60 -181 -38 89 0
346 347 348 349 350 0
-351 74 0
-351 -4 0
-351 162 0
-351 -167 0
-351 -121 0
351 -74 4 -162 167 121 0
-352 -45 0
-352 -172 0
-352 91 0
-352 -148 0
-352 85 0
352 45 172 -91 148 -85 0
-353 -38 0
-353 -165 0
-353 -28 0
-353 -163 0
-353 -155 0
353 38 165 28 163 155 0
-354 41 0
-354 -129 0
-354 17 0
-354 188 0
-354 -109 0
354 -41 129 -17 -188 109 0
-355 -174 0
-355 -35 0
-355 -124 0
-355 54 0
-355 -178 0
355 174 35 124 -54 178 0
351 352 353 354 355 0
-356 81 0
-356 29 0
-356 55 0
-356 155 0
-356 -89 0
356 -81 -29 -55 -155 89 0
-357 58 0
-357 -98 0
-357 44 0
-357 -161 0
-357 -67 0
357 -58 98 -44 161 67 0
-358 -121 0
-358 2 0
-358 -176 0
-358 23 0
-358 38 0
358 121 -2 176 -23 -38 0
-359 -41 0
-359 -82 0
-359 -145 0
-359 -64 0
-359 80 0
359 41 82 145 64 -80 0
-360 -184 0
-360 10 0
-360 -71 0
-360 -27 0
-360 -181 0
360 184 -10 71 27 181 0
356 357 358 359 360 0
-361 -77 0
-361 71 0
-361 151 0
-361 -15 0
-361 -102 0
361 77 -71 -151 15 102 0
-362 -170 0
-362 135 0
-362 178 0
-362 171 0
-362 112 0
362 170 -135 -178 -171 -112 0
-363 40 0
-363 -63 0
-363 -134 0
-363 163 0
-363 43 0
363 -40 63 134 -163 -43 0
-364 -78 0
-364 109 0
-364 -39 0
-364 146 0
-364 -57 0
364 78 -109 39 -146 57 0
-365 163 0
-365 -104 0
-365 145 0
-365 184 0
-365 35 0
365 -163 104 -145 -184 -35 0
361 362 363 364 365 0
-366 98 0
-366 -33 0
-366 35 0
-366 -82 0
-366 15 0
366 -98 33 -35 82 -15 0
-367 136 0
-367 114 0
-367 -123 0
-367 -135 0
-367 142 0
367 -136 -114 123 135 -142 0
-368 185 0
-368 -122 0
-368 35 0
-368 114 0
-368 -131 0
368 -185 122 -35 -114 131 0
-369 190 0
-369 182 0
-369 -116 0
-369 68 0
-369 61 0
369 -190 -182 116 -68 -61 0
-370 -148 0
-370 -124 0
-370 103 0
-370 97 0
-370 -179 0
370 148 124 -103 -97 179 0
366 367 368 369 370 0
-371 38 0
-371 20 0
-371 71 0
-371 -28 0
-371 13 0
371 -38 -20 -71 28 -13 0
-372 105 0
-372 -36 0
-372 -74 0
-372 70 0
-372 170 0
372 -105 36 74 -70 -170 0
-373 -23 0
-373 -105 0
-373 56 0
-373 180 0
-373 -188 0
373 23 105 -56 -180 188 0
-374 -43 0
-374 110 0
-374 48 0
-374 100 0
-374 160 0
374 43 -110 -48 -100 -160 0
-375 136 0
-375 109 0
-375 20 0
-375 -35 0
-375 58 0
375 -136 -109 -20 35 -58 0
371 372 373 374 375 0
-376 18 0
-376 133 0
-376 -45 0
-376 -187 0
-376 121 0
376 -18 -133 45 187 -121 0
-377 -181 0
-377 -138 0
-377 43 0
-377 71 0
-377 -107 0
377 181 138 -43 -71 107 0
-378 117 0
-378 127 0
-378 -131 0
-378 35 0
-378 -75 0
378 -117 -127 131 -35 75 0
-379 3 0
-379 -94 0
-379 33 0
-379 133 0
-379 -26 0
379 -3 94 -33 -133 26 0
-380 -38 0
-380 -46 0
-380 120 0
-380 42 0
-380 -157 0
380 38 46 -120 -42 157 0
376 377 378 379 380 0
-381 -146 0
-381 -5 0
-381 -157 0
-381 2 0
-381 171 0
381 146 5 157 -2 -171 0
-382 -104 0
-382 -150 0
-382 -178 0
-382 -69 0
-382 73 0
382 104 150 178 69 -73 0
-383 185 0
-383 -169 0
-383 87 0
-383 -49 0
-383 -156 0
383 -185 169 -87 49 156 0
-384 87 0
-384 -35 0
-384 146 0
-384 113 0
-384 -53 0
384 -87 35 -146 -113 53 0
-385 -8 0
-385 126 0
-385 -112 0
-385 -146 0
-385 -188 0
385 8 -126 112 146 188 0
381 382 383 384 385 0
-386 -132 0
-386 -39 0
-386 26 0
-386 130 0
-386 -120 0
386 132 39 -26 -130 120 0
-387 -189 0
-387 -17 0
-387 -154 0
-387 -67 0
-387 -140 0
387 189 17 154 67 140 0
-388 -145 0
-388 -118 0
-388 -56 0
-388 -44 0
-388 -153 0
388 145 118 56 44 153 0
-389 1 0
-389 -132 0
-389 -92 0
-389 29 0
-389 -87 0
389 -1 132 92 -29 87 0
-390 -126 0
-390 -40 0
-390 -45 0
-390 49 0
-390 -63 0
390 126 40 45 -49 63 0
386 387 388 389 390 0
-391 -64 0
-391 13 0
-391 140 0
-391 163 0
-391 42 0
391 64 -13 -140 -163 -42 0
-392 -21 0
-392 33 0
-392 187 0
-392 -166 0
-392 -140 0
392 21 -33 -187 166 140 0
-393 133 0
-393 -180 0
-393 75 0
-393 -56 0
-393 -122 0
393 -133 180 -75 56 122 0
-394 -92 0
-394 -172 0
-394 -186 0
-394 139 0
-394 182 0
394 92 172 186 -139 -182 0
-395 -157 0
-395 69 0
-395 121 0
-395 -122 0
-395 -142 0
395 157 -69 -121 122 142 0
391 392 393 394 395 0
-396 -11 0
-396 163 0
-396 130 0
-396 -119 0
-396 52 0
396 11 -163 -130 119 -52 0
-397 152 0
-397 66 0
-397 -135 0
-397 46 0
-397 58 0
397 -152 -66 135 -46 -58 0
-398 56 0
-398 -38 0
-398 -89 0
-398 61 0
-398 110 0
398 -56 38 89 -61 -110 0
-399 -89 0
-399 -149 0
-399 79 0
-399 -116 0
-399 -62 0
399 89 149 -79 116 62 0
-400 -109 0
-400 132 0
-400 -17 0
-400 100 0
-400 67 0
400 109 -132 17 -100 -67 0
396 397 398 399 400 0
-401 -94 0
-401 12 0
-401 -181 0
-401 -114 0
-401 125 0
401 94 -12 181 114 -125 0
-402 -141 0
-402 -51 0
-402 172 0
-402 -24 0
-402 165 0
402 141 51 -172 24 -165 0
-403 -46 0
-403 -151 0
-403 -171 0
-403 -30 0
-403 127 0
403 46 151 171 30 -127 0
-404 -127 0
-404 -81 0
-404 -147 0
-404 -11 0
-404 183 0
404 127 81 147 11 -183 0
-405 1 0
-405 76 0
-405 68 0
-405 8 0
-405 -61 0
405 -1 -76 -68 -8 61 0
401 402 403 404 405 0
-406 -20 0
-406 111 0
-406 140 0
-406 -10 0
-406 -107 0
406 20 -111 -140 10 107 0
-407 -104 0
-407 22 0
-407 124 0
-407 -51 0
-407 38 0
407 104 -22 -124 51 -38 0
-408 -34 0
-408 -167 0
-408 1 0
-408 25 0
-408 -149 0
408 34 167 -1 -25 149 0
-409 99 0
-409 -46 0
-409 81 0
-409 -56 0
-409 -101 0
409 -99 46 -81 56 101 0
-410 -136 0
-410 118 0
-410 -167 0
-410 -183 0
-410 -72 0
410 136 -118 167 183 72 0
406 407 408 409 410 0
-411 -32 0
-411 50 0
-411 187 0
-411 -156 0
-411 -102 0
411 32 -50 -187 156 102 0
-412 -122 0
-412 93 0
-412 86 0
-412 190 0
-412 -65 0
412 122 -93 -86 -190 65 0
-413 105 0
-413 -108 0
-413 -107 0
-413 41 0
-413 -48 0
413 -105 108 107 -41 48 0
-414 -119 0
-414 149 0
-414 10 0
-414 -158 0
-414 156 0
414 119 -149 -10 158 -156 0
-415 -74 0
-415 -110 0
-415 -184 0
-415 -35 0
-415 132 0
415 74 110 184 35 -132 0
411 412 413 414 415 0
-416 137 0
-416 -130 0
-416 -77 0
-416 168 0
-416 182 0
416 -137 130 77 -168 -182 0
-417 -132 0
-417 137 0
-417 19 0
-417 114 0
-417 -102 0
417 132 -137 -19 -114 102 0
-418 87 0
-418 189 0
-418 -92 0
-418 43 0
-418 -182 0
418 -87 -189 92 -43 182 0
-419 -93 0
-419 -100 0
-419 -34 0
-419 -73 0
-419 123 0
419 93 100 34 73 -123 0
-420 -121 0
-420 -75 0
-420 42 0
-420 -164 0
-420 152 0
420 121 75 -42 164 -152 0
416 417 418 419 420 0
-421 46 0
-421 103 0
-421 152 0
-421 -7 0
-421 -68 0
421 -46 -103 -152 7 68 0
-422 -21 0
-422 -152 0
-422 -24 0
-422 -49 0
-422 73 0
422 21 152 24 49 -73 0
-423 77 0
-423 158 0
-423 -110 0
-423 -156 0
-423 -118 0
423 -77 -158 110 156 118 0
-424 162 0
-424 -170 0
-424 -10 0
-424 -178 0
-424 94 0
424 -162 170 10 178 -94 0
-425 -142 0
-425 -47 0
-425 -93 0
-425 166 0
-425 3 0
425 142 47 93 -166 -3 0
421 422 423 424 425 0
-426 -7 0
-426 -176 0
-426 -168 0
-426 108 0
-426 -87 0
426 7 176 168 -108 87 0
-427 -124 0
-427 21 0
-427 153 0
-427 -39 0
-427 150 0
427 124 -21 -153 39 -150 0
-428 49 0
-428 -67 0
-428 36 0
-428 101 0
-428 184 0
428 -49 67 -36 -101 -184 0
-429 182 0
-429 186 0
-429 52 0
-429 80 0
-429 -10 0
429 -182 -186 -52 -80 10 0
-430 183 0
-430 -170 0
-430 42 0
-430 -43 0
-430 -86 0
430 -183 170 -42 43 86 0
426 427 428 429 430 0
